c colouring generated by benchmark framework
p edge 1000 246708
v 1 37
v 2 33
v 3 36
v 4 28
v 5 74
v 6 30
v 7 83
v 8 34
v 9 90
v 10 131
v 11 66
v 12 76
v 13 37
v 14 13
v 15 44
v 16 3
v 17 15
v 18 2
v 19 23
v 20 77
v 21 7
v 22 72
v 23 3
v 24 24
v 25 52
v 26 86
v 27 86
v 28 96
v 29 11
v 30 120
v 31 101
v 32 63
v 33 109
v 34 104
v 35 68
v 36 40
v 37 76
v 38 90
v 39 88
v 40 115
v 41 45
v 42 77
v 43 119
v 44 40
v 45 20
v 46 49
v 47 41
v 48 10
v 49 45
v 50 68
v 51 27
v 52 50
v 53 108
v 54 93
v 55 20
v 56 26
v 57 22
v 58 16
v 59 24
v 60 107
v 61 104
v 62 8
v 63 78
v 64 64
v 65 8
v 66 11
v 67 85
v 68 66
v 69 83
v 70 69
v 71 12
v 72 34
v 73 127
v 74 29
v 75 8
v 76 59
v 77 109
v 78 71
v 79 106
v 80 86
v 81 11
v 82 102
v 83 58
v 84 26
v 85 119
v 86 124
v 87 19
v 88 31
v 89 86
v 90 69
v 91 52
v 92 19
v 93 1
v 94 126
v 95 52
v 96 115
v 97 110
v 98 132
v 99 39
v 100 64
v 101 7
v 102 31
v 103 11
v 104 91
v 105 40
v 106 80
v 107 78
v 108 54
v 109 70
v 110 106
v 111 86
v 112 7
v 113 52
v 114 49
v 115 10
v 116 62
v 117 64
v 118 26
v 119 43
v 120 0
v 121 56
v 122 20
v 123 19
v 124 6
v 125 96
v 126 3
v 127 17
v 128 38
v 129 6
v 130 97
v 131 108
v 132 87
v 133 14
v 134 14
v 135 131
v 136 20
v 137 39
v 138 25
v 139 90
v 140 45
v 141 18
v 142 15
v 143 35
v 144 66
v 145 13
v 146 22
v 147 61
v 148 14
v 149 64
v 150 51
v 151 17
v 152 81
v 153 98
v 154 23
v 155 89
v 156 73
v 157 33
v 158 92
v 159 9
v 160 112
v 161 18
v 162 75
v 163 103
v 164 80
v 165 110
v 166 60
v 167 21
v 168 63
v 169 111
v 170 38
v 171 58
v 172 58
v 173 94
v 174 128
v 175 76
v 176 42
v 177 60
v 178 77
v 179 3
v 180 99
v 181 24
v 182 65
v 183 80
v 184 99
v 185 97
v 186 27
v 187 22
v 188 19
v 189 42
v 190 30
v 191 57
v 192 8
v 193 14
v 194 8
v 195 17
v 196 68
v 197 118
v 198 57
v 199 52
v 200 56
v 201 79
v 202 76
v 203 90
v 204 50
v 205 96
v 206 74
v 207 95
v 208 90
v 209 9
v 210 42
v 211 46
v 212 60
v 213 36
v 214 60
v 215 90
v 216 48
v 217 25
v 218 42
v 219 71
v 220 88
v 221 83
v 222 35
v 223 65
v 224 18
v 225 75
v 226 44
v 227 16
v 228 101
v 229 61
v 230 114
v 231 10
v 232 32
v 233 12
v 234 116
v 235 94
v 236 102
v 237 75
v 238 32
v 239 3
v 240 73
v 241 41
v 242 56
v 243 68
v 244 34
v 245 16
v 246 91
v 247 125
v 248 81
v 249 16
v 250 92
v 251 9
v 252 121
v 253 9
v 254 73
v 255 101
v 256 43
v 257 54
v 258 62
v 259 119
v 260 56
v 261 51
v 262 48
v 263 78
v 264 105
v 265 32
v 266 99
v 267 32
v 268 30
v 269 88
v 270 63
v 271 108
v 272 2
v 273 118
v 274 120
v 275 40
v 276 0
v 277 48
v 278 41
v 279 130
v 280 133
v 281 79
v 282 107
v 283 112
v 284 61
v 285 10
v 286 94
v 287 48
v 288 55
v 289 92
v 290 81
v 291 14
v 292 20
v 293 132
v 294 79
v 295 116
v 296 5
v 297 30
v 298 22
v 299 129
v 300 112
v 301 22
v 302 21
v 303 28
v 304 48
v 305 108
v 306 10
v 307 38
v 308 120
v 309 65
v 310 47
v 311 26
v 312 49
v 313 22
v 314 49
v 315 5
v 316 27
v 317 100
v 318 108
v 319 117
v 320 35
v 321 39
v 322 26
v 323 46
v 324 59
v 325 92
v 326 69
v 327 30
v 328 125
v 329 3
v 330 51
v 331 130
v 332 0
v 333 54
v 334 100
v 335 82
v 336 55
v 337 119
v 338 25
v 339 113
v 340 115
v 341 134
v 342 107
v 343 72
v 344 63
v 345 64
v 346 47
v 347 71
v 348 95
v 349 18
v 350 1
v 351 42
v 352 118
v 353 89
v 354 56
v 355 61
v 356 43
v 357 56
v 358 4
v 359 66
v 360 0
v 361 62
v 362 46
v 363 42
v 364 36
v 365 69
v 366 4
v 367 115
v 368 109
v 369 65
v 370 98
v 371 74
v 372 100
v 373 1
v 374 113
v 375 75
v 376 68
v 377 111
v 378 102
v 379 103
v 380 29
v 381 31
v 382 100
v 383 79
v 384 25
v 385 3
v 386 79
v 387 38
v 388 11
v 389 114
v 390 8
v 391 74
v 392 63
v 393 44
v 394 13
v 395 48
v 396 21
v 397 72
v 398 20
v 399 39
v 400 53
v 401 53
v 402 99
v 403 126
v 404 28
v 405 31
v 406 58
v 407 98
v 408 0
v 409 66
v 410 60
v 411 67
v 412 0
v 413 15
v 414 121
v 415 130
v 416 71
v 417 37
v 418 12
v 419 101
v 420 71
v 421 59
v 422 55
v 423 16
v 424 123
v 425 98
v 426 70
v 427 44
v 428 8
v 429 40
v 430 74
v 431 25
v 432 23
v 433 22
v 434 62
v 435 88
v 436 52
v 437 94
v 438 25
v 439 18
v 440 26
v 441 92
v 442 118
v 443 1
v 444 64
v 445 53
v 446 18
v 447 17
v 448 64
v 449 98
v 450 83
v 451 65
v 452 33
v 453 120
v 454 84
v 455 7
v 456 124
v 457 101
v 458 96
v 459 23
v 460 24
v 461 71
v 462 8
v 463 35
v 464 51
v 465 47
v 466 49
v 467 4
v 468 70
v 469 27
v 470 55
v 471 23
v 472 62
v 473 121
v 474 86
v 475 44
v 476 39
v 477 9
v 478 59
v 479 53
v 480 86
v 481 6
v 482 57
v 483 14
v 484 113
v 485 27
v 486 103
v 487 132
v 488 97
v 489 31
v 490 61
v 491 46
v 492 93
v 493 32
v 494 38
v 495 27
v 496 7
v 497 96
v 498 33
v 499 84
v 500 126
v 501 52
v 502 8
v 503 12
v 504 2
v 505 17
v 506 15
v 507 101
v 508 55
v 509 35
v 510 117
v 511 29
v 512 41
v 513 4
v 514 18
v 515 2
v 516 23
v 517 43
v 518 41
v 519 97
v 520 84
v 521 78
v 522 68
v 523 29
v 524 73
v 525 91
v 526 73
v 527 16
v 528 36
v 529 110
v 530 5
v 531 114
v 532 89
v 533 93
v 534 79
v 535 37
v 536 77
v 537 113
v 538 10
v 539 60
v 540 1
v 541 84
v 542 71
v 543 52
v 544 0
v 545 112
v 546 70
v 547 77
v 548 40
v 549 5
v 550 4
v 551 57
v 552 96
v 553 27
v 554 52
v 555 35
v 556 15
v 557 37
v 558 36
v 559 107
v 560 136
v 561 33
v 562 69
v 563 26
v 564 68
v 565 26
v 566 66
v 567 24
v 568 45
v 569 7
v 570 24
v 571 27
v 572 61
v 573 38
v 574 105
v 575 43
v 576 28
v 577 7
v 578 93
v 579 49
v 580 116
v 581 87
v 582 69
v 583 18
v 584 50
v 585 21
v 586 13
v 587 14
v 588 87
v 589 0
v 590 112
v 591 23
v 592 75
v 593 91
v 594 88
v 595 6
v 596 135
v 597 90
v 598 39
v 599 2
v 600 58
v 601 80
v 602 50
v 603 92
v 604 65
v 605 37
v 606 116
v 607 12
v 608 69
v 609 68
v 610 78
v 611 31
v 612 116
v 613 50
v 614 109
v 615 109
v 616 30
v 617 3
v 618 20
v 619 84
v 620 34
v 621 70
v 622 105
v 623 47
v 624 30
v 625 70
v 626 92
v 627 13
v 628 53
v 629 46
v 630 81
v 631 32
v 632 57
v 633 82
v 634 93
v 635 32
v 636 119
v 637 76
v 638 81
v 639 130
v 640 106
v 641 117
v 642 15
v 643 15
v 644 27
v 645 21
v 646 47
v 647 53
v 648 75
v 649 122
v 650 87
v 651 110
v 652 50
v 653 19
v 654 104
v 655 81
v 656 21
v 657 1
v 658 35
v 659 28
v 660 72
v 661 53
v 662 46
v 663 11
v 664 67
v 665 5
v 666 72
v 667 81
v 668 11
v 669 2
v 670 10
v 671 1
v 672 13
v 673 72
v 674 70
v 675 13
v 676 52
v 677 61
v 678 69
v 679 17
v 680 35
v 681 15
v 682 85
v 683 24
v 684 25
v 685 36
v 686 23
v 687 6
v 688 41
v 689 88
v 690 11
v 691 71
v 692 21
v 693 54
v 694 4
v 695 79
v 696 121
v 697 80
v 698 83
v 699 39
v 700 84
v 701 132
v 702 80
v 703 93
v 704 13
v 705 107
v 706 12
v 707 58
v 708 38
v 709 5
v 710 5
v 711 38
v 712 134
v 713 63
v 714 59
v 715 76
v 716 12
v 717 82
v 718 34
v 719 58
v 720 34
v 721 57
v 722 11
v 723 15
v 724 34
v 725 82
v 726 85
v 727 9
v 728 65
v 729 134
v 730 81
v 731 25
v 732 59
v 733 54
v 734 6
v 735 32
v 736 67
v 737 75
v 738 78
v 739 36
v 740 41
v 741 136
v 742 13
v 743 56
v 744 98
v 745 89
v 746 73
v 747 135
v 748 89
v 749 96
v 750 44
v 751 5
v 752 20
v 753 12
v 754 133
v 755 22
v 756 24
v 757 80
v 758 4
v 759 36
v 760 28
v 761 38
v 762 133
v 763 67
v 764 47
v 765 63
v 766 38
v 767 84
v 768 61
v 769 31
v 770 46
v 771 113
v 772 16
v 773 43
v 774 100
v 775 29
v 776 61
v 777 33
v 778 104
v 779 122
v 780 59
v 781 3
v 782 54
v 783 77
v 784 75
v 785 28
v 786 80
v 787 50
v 788 91
v 789 72
v 790 94
v 791 48
v 792 51
v 793 102
v 794 109
v 795 79
v 796 78
v 797 66
v 798 107
v 799 47
v 800 107
v 801 21
v 802 23
v 803 15
v 804 44
v 805 131
v 806 94
v 807 105
v 808 55
v 809 64
v 810 54
v 811 81
v 812 0
v 813 7
v 814 65
v 815 124
v 816 103
v 817 45
v 818 74
v 819 63
v 820 49
v 821 104
v 822 6
v 823 95
v 824 0
v 825 29
v 826 128
v 827 96
v 828 4
v 829 13
v 830 100
v 831 89
v 832 29
v 833 85
v 834 31
v 835 85
v 836 101
v 837 103
v 838 12
v 839 50
v 840 16
v 841 95
v 842 89
v 843 99
v 844 88
v 845 129
v 846 79
v 847 1
v 848 29
v 849 31
v 850 95
v 851 77
v 852 58
v 853 20
v 854 41
v 855 54
v 856 68
v 857 42
v 858 9
v 859 102
v 860 10
v 861 35
v 862 49
v 863 40
v 864 49
v 865 2
v 866 21
v 867 30
v 868 73
v 869 6
v 870 104
v 871 117
v 872 102
v 873 7
v 874 82
v 875 124
v 876 33
v 877 58
v 878 89
v 879 112
v 880 30
v 881 84
v 882 59
v 883 87
v 884 26
v 885 67
v 886 53
v 887 46
v 888 19
v 889 31
v 890 111
v 891 23
v 892 106
v 893 60
v 894 19
v 895 71
v 896 85
v 897 40
v 898 91
v 899 1
v 900 57
v 901 11
v 902 90
v 903 9
v 904 34
v 905 85
v 906 72
v 907 5
v 908 84
v 909 111
v 910 45
v 911 78
v 912 122
v 913 51
v 914 97
v 915 76
v 916 71
v 917 4
v 918 66
v 919 45
v 920 53
v 921 70
v 922 6
v 923 95
v 924 67
v 925 100
v 926 102
v 927 115
v 928 95
v 929 35
v 930 45
v 931 86
v 932 105
v 933 111
v 934 57
v 935 39
v 936 2
v 937 69
v 938 59
v 939 88
v 940 39
v 941 117
v 942 47
v 943 45
v 944 34
v 945 74
v 946 97
v 947 29
v 948 93
v 949 99
v 950 91
v 951 63
v 952 54
v 953 53
v 954 37
v 955 82
v 956 55
v 957 67
v 958 5
v 959 43
v 960 100
v 961 20
v 962 51
v 963 3
v 964 104
v 965 28
v 966 127
v 967 57
v 968 37
v 969 17
v 970 89
v 971 87
v 972 17
v 973 37
v 974 64
v 975 94
v 976 19
v 977 94
v 978 62
v 979 11
v 980 14
v 981 105
v 982 83
v 983 9
v 984 101
v 985 36
v 986 22
v 987 125
v 988 54
v 989 104
v 990 17
v 991 87
v 992 72
v 993 51
v 994 114
v 995 33
v 996 27
v 997 62
v 998 28
v 999 105
v 1000 42
